set VV := 0 1 2 3 4 5 6 7 8 9 10 11 12 13 14 15 16 17 18 19 20 21 22 23 24 25 26 27 28 29 30 31 32 33 ;
set VS := 0 1 2 3 4 5 6 7 8 9 10 11 12 13 14 15 16 17 18 19 20 21 22 23 24 25 26 27 28 29 30 31 32 33 34 35 36 37 38 39 40 41 42 43 44 45 46 47 48 49 50 51 52 53 54 55 56 57 58 59 60 61 62 63 64 65 66 67 68 69 70 71 72 ;
param cv := 
0 21
1 21
2 20
3 13
4 25
5 13
6 18
7 18
8 24
9 19
10 11
11 21
12 13
13 25
14 11
15 15
16 13
17 24
18 15
19 11
20 18
21 24
22 11
23 12
24 15
25 19
26 16
27 16
28 19
29 12
30 15
31 15
32 19
33 10
;
param cs := 
0 28
1 30
2 35
3 33
4 25
5 28
6 35
7 32
8 31
9 20
10 29
11 21
12 39
13 21
14 33
15 35
16 29
17 26
18 20
19 31
20 26
21 30
22 30
23 26
24 34
25 35
26 40
27 24
28 28
29 26
30 38
31 34
32 35
33 26
34 22
35 27
36 36
37 29
38 32
39 34
40 37
41 28
42 39
43 39
44 33
45 30
46 27
47 36
48 34
49 24
50 31
51 29
52 20
53 25
54 38
55 31
56 33
57 34
58 27
59 28
60 29
61 31
62 34
63 21
64 32
65 26
66 39
67 24
68 33
69 27
70 40
71 30
72 30
;
param bv:	 0 1 2 3 4 5 6 7 8 9 10 11 12 13 14 15 16 17 18 19 20 21 22 23 24 25 26 27 28 29 30 31 32 33 := 
		0 0 0 0 0 0 0 0 0 0 0 0 17 0 0 0 12 23 0 18 0 0 0 0 11 0 10 0 0 0 0 0 19 0 0 
		1 0 0 13 0 0 20 0 0 0 0 0 0 0 0 0 0 0 0 0 0 0 0 0 0 0 0 0 0 0 12 0 10 0 0 
		2 0 0 0 0 0 0 0 0 0 0 0 0 0 0 0 0 0 0 15 17 0 0 0 0 0 0 0 0 0 0 0 0 13 19 
		3 0 0 0 0 0 0 0 0 0 0 0 0 0 0 19 0 0 0 0 0 0 0 0 0 0 0 0 0 0 0 0 0 0 0 
		4 0 0 0 0 0 0 0 0 23 0 0 0 14 0 0 0 0 0 0 0 0 0 0 0 0 0 0 0 16 0 0 0 11 0 
		5 0 0 0 0 0 0 0 0 0 0 0 0 0 10 0 0 0 0 24 0 0 0 0 0 0 0 0 0 0 0 0 0 13 0 
		6 0 0 0 0 0 0 0 0 11 0 0 0 0 0 0 0 0 23 0 0 0 0 0 0 0 0 0 0 0 0 0 0 0 0 
		7 0 0 0 0 0 0 0 0 0 0 0 0 20 24 0 0 0 0 0 0 0 0 10 0 0 24 0 23 0 0 0 0 0 0 
		8 0 0 0 0 0 0 0 0 0 0 0 0 0 0 0 0 0 0 0 0 0 25 0 0 0 0 0 0 0 0 0 0 15 0 
		9 0 0 0 0 0 0 0 0 0 0 0 0 0 0 0 12 0 0 0 0 0 13 0 0 0 0 0 0 0 0 0 0 0 0 
		10 0 0 0 0 0 0 0 0 0 0 0 10 0 0 0 24 0 0 14 0 16 0 0 0 0 0 0 0 0 0 0 24 0 16 
		11 0 0 0 0 0 0 0 0 0 0 0 0 0 24 0 0 0 0 0 0 24 0 0 0 0 0 0 21 0 0 0 0 0 0 
		12 0 0 0 0 0 0 0 0 0 0 0 0 0 0 0 0 0 16 0 0 0 0 0 10 0 0 0 0 0 0 0 0 0 0 
		13 0 0 0 0 0 0 0 0 0 0 0 0 0 0 0 0 0 0 0 0 0 0 0 0 0 0 0 0 0 0 0 0 0 0 
		14 0 0 0 0 0 0 0 0 0 0 0 0 0 0 0 0 0 0 0 0 19 0 0 0 0 0 0 0 0 0 0 0 0 0 
		15 0 0 0 0 0 0 0 0 0 0 0 0 0 0 0 0 0 0 0 0 0 0 0 0 0 0 18 0 0 0 0 0 0 0 
		16 0 0 0 0 0 0 0 0 0 0 0 0 0 0 0 0 0 0 20 17 0 16 0 0 17 25 0 0 0 0 0 23 0 0 
		17 0 0 0 0 0 0 0 0 0 0 0 0 0 0 0 0 0 0 0 0 0 0 0 0 0 0 0 0 0 10 0 0 0 0 
		18 0 0 0 0 0 0 0 0 0 0 0 0 0 0 0 0 0 0 0 16 0 0 0 0 0 0 0 0 0 10 0 0 20 0 
		19 0 0 0 0 0 0 0 0 0 0 0 0 0 0 0 0 0 0 0 0 0 0 0 0 0 0 12 0 0 0 10 0 0 0 
		20 0 0 0 0 0 0 0 0 0 0 0 0 0 0 0 0 0 0 0 0 0 0 0 0 0 0 0 0 0 0 0 0 0 0 
		21 0 0 0 0 0 0 0 0 0 0 0 0 0 0 0 0 0 0 0 0 0 0 0 0 0 0 17 0 0 0 0 0 0 0 
		22 0 0 0 0 0 0 0 0 0 0 0 0 0 0 0 0 0 0 0 0 0 0 0 0 0 0 0 0 0 0 23 0 0 0 
		23 0 0 0 0 0 0 0 0 0 0 0 0 0 0 0 0 0 0 0 0 0 0 0 0 0 0 0 0 0 0 0 0 0 0 
		24 0 0 0 0 0 0 0 0 0 0 0 0 0 0 0 0 0 0 0 0 0 0 0 0 0 0 0 0 0 0 17 0 0 17 
		25 0 0 0 0 0 0 0 0 0 0 0 0 0 0 0 0 0 0 0 0 0 0 0 0 0 0 11 0 0 0 0 0 0 0 
		26 0 0 0 0 0 0 0 0 0 0 0 0 0 0 0 0 0 0 0 0 0 0 0 0 0 0 0 0 11 0 0 0 0 0 
		27 0 0 0 0 0 0 0 0 0 0 0 0 0 0 0 0 0 0 0 0 0 0 0 0 0 0 0 0 0 0 0 0 0 0 
		28 0 0 0 0 0 0 0 0 0 0 0 0 0 0 0 0 0 0 0 0 0 0 0 0 0 0 0 0 0 0 0 13 0 0 
		29 0 0 0 0 0 0 0 0 0 0 0 0 0 0 0 0 0 0 0 0 0 0 0 0 0 0 0 0 0 0 0 0 0 0 
		30 0 0 0 0 0 0 0 0 0 0 0 0 0 0 0 0 0 0 0 0 0 0 0 0 0 0 0 0 0 0 0 0 22 0 
		31 0 0 0 0 0 0 0 0 0 0 0 0 0 0 0 0 0 0 0 0 0 0 0 0 0 0 0 0 0 0 0 0 0 0 
		32 0 0 0 0 0 0 0 0 0 0 0 0 0 0 0 0 0 0 0 0 0 0 0 0 0 0 0 0 0 0 0 0 0 19 
		33 0 0 0 0 0 0 0 0 0 0 0 0 0 0 0 0 0 0 0 0 0 0 0 0 0 0 0 0 0 0 0 0 0 0 
;
param bs:	 0 1 2 3 4 5 6 7 8 9 10 11 12 13 14 15 16 17 18 19 20 21 22 23 24 25 26 27 28 29 30 31 32 33 34 35 36 37 38 39 40 41 42 43 44 45 46 47 48 49 50 51 52 53 54 55 56 57 58 59 60 61 62 63 64 65 66 67 68 69 70 71 72 := 
		0 0 0 20 0 0 0 0 39 0 0 0 20 0 0 0 0 0 0 0 0 0 0 0 0 0 0 0 0 0 0 0 0 0 0 0 0 0 0 0 0 0 0 0 0 0 0 0 0 0 0 0 0 0 0 0 0 39 0 0 0 0 0 0 0 0 0 0 0 0 0 0 0 0 
		1 0 0 0 0 0 0 0 0 0 0 0 0 0 0 31 0 0 0 0 0 0 0 0 21 0 0 0 0 0 0 0 35 0 0 24 0 0 0 0 0 0 0 24 0 0 0 0 0 0 0 0 0 0 0 0 38 0 0 0 0 28 0 0 0 0 0 0 34 0 0 0 0 0 
		2 20 0 0 0 0 0 0 0 0 0 0 0 0 0 0 0 0 0 0 32 0 0 0 0 34 0 0 0 0 0 0 0 0 0 0 0 0 0 0 0 0 0 28 40 0 0 0 0 0 0 0 0 0 36 36 0 0 0 0 0 0 0 20 27 0 0 0 0 0 20 0 0 0 
		3 0 0 0 0 0 0 0 0 0 0 0 0 0 0 0 0 0 0 0 0 0 0 0 0 0 0 0 0 36 0 0 0 0 0 0 29 0 0 0 26 0 0 0 0 0 0 0 20 0 25 0 0 0 0 0 0 0 0 0 0 0 0 0 0 0 0 0 0 0 0 0 0 0 
		4 0 0 0 0 0 0 0 0 0 0 0 0 0 0 0 0 0 0 0 0 0 0 0 0 0 0 0 0 0 0 0 25 0 0 0 0 0 32 0 0 20 0 0 0 0 0 0 0 0 0 0 0 0 0 0 0 0 0 0 0 0 0 0 0 0 0 31 0 0 0 0 0 0 
		5 0 0 0 0 0 0 0 0 0 0 0 0 30 0 0 0 0 0 0 0 0 0 0 0 0 0 0 0 0 0 0 0 0 0 0 0 0 0 0 0 0 0 0 0 0 0 0 0 0 0 22 0 0 0 0 0 0 0 0 0 0 0 0 0 0 0 0 0 0 0 0 0 0 
		6 0 0 0 0 0 0 0 0 23 0 0 0 0 0 0 0 0 32 0 0 27 0 0 34 38 0 0 0 0 31 0 20 0 0 0 0 0 0 0 0 0 0 0 0 0 0 0 0 0 0 0 0 0 0 0 0 0 0 0 0 0 0 0 0 0 28 0 0 0 29 0 0 0 
		7 39 0 0 0 0 0 0 0 0 0 0 0 0 0 0 0 0 0 0 0 0 0 0 27 0 0 0 0 0 0 0 0 0 0 0 0 0 0 36 38 33 0 0 0 0 0 32 0 0 0 0 0 0 0 0 0 0 0 0 0 0 0 0 0 0 0 0 0 0 0 0 0 0 
		8 0 0 0 0 0 0 23 0 0 29 0 0 0 0 21 0 0 0 0 0 0 0 0 0 0 0 0 0 0 34 0 0 0 0 0 0 0 0 0 0 0 0 0 0 0 0 20 0 0 0 0 0 0 0 0 0 0 0 0 0 0 0 0 0 0 0 0 0 0 0 0 0 0 
		9 0 0 0 0 0 0 0 0 29 0 0 0 0 0 0 0 0 0 0 0 0 0 0 0 0 0 0 0 25 23 0 30 0 0 0 0 0 0 0 0 0 0 0 0 0 0 0 0 0 0 0 0 0 0 0 0 0 0 0 0 0 39 0 0 0 0 0 0 0 0 0 0 0 
		10 0 0 0 0 0 0 0 0 0 0 0 25 0 0 0 0 0 35 0 0 0 0 0 25 0 0 0 0 0 0 0 0 0 0 0 0 26 39 0 0 0 0 0 0 0 0 0 0 0 0 0 0 25 0 21 0 0 22 0 0 0 0 0 0 0 0 0 0 37 0 0 0 0 
		11 20 0 0 0 0 0 0 0 0 0 25 0 26 0 0 0 0 0 0 22 0 0 0 0 0 0 0 0 0 0 0 0 0 0 0 0 0 0 0 0 0 0 0 0 24 0 0 0 37 0 0 0 0 22 22 24 0 0 0 0 24 0 0 0 0 0 0 0 0 0 0 0 0 
		12 0 0 0 0 0 30 0 0 0 0 0 26 0 0 0 0 0 0 0 0 0 0 0 0 0 26 0 0 0 0 0 0 0 25 0 0 0 0 0 0 0 0 0 0 0 0 0 0 0 0 0 0 0 0 0 30 0 0 0 0 0 0 0 0 0 0 0 0 0 0 0 0 0 
		13 0 0 0 0 0 0 0 0 0 0 0 0 0 0 0 0 0 0 0 0 37 21 0 0 0 0 0 0 25 0 0 0 0 0 24 0 38 0 0 0 0 0 0 0 0 0 0 0 0 0 0 0 0 0 0 0 0 0 0 0 0 0 0 0 0 0 37 0 0 0 0 0 0 
		14 0 31 0 0 0 0 0 0 21 0 0 0 0 0 0 0 0 0 0 30 21 0 0 36 0 0 0 0 35 29 0 0 0 0 0 0 0 0 0 0 0 0 0 0 0 38 0 0 0 23 0 0 0 0 0 0 0 0 0 0 0 0 36 0 0 0 0 0 0 0 0 0 0 
		15 0 0 0 0 0 0 0 0 0 0 0 0 0 0 0 0 0 0 0 0 27 0 0 0 38 0 0 0 0 0 0 0 0 0 0 0 0 35 0 0 0 0 0 0 0 0 30 38 0 0 0 0 0 0 38 0 0 0 0 0 0 0 0 0 0 0 0 26 0 0 0 0 0 
		16 0 0 0 0 0 0 0 0 0 0 0 0 0 0 0 0 0 0 0 30 0 0 0 0 0 0 0 0 0 0 0 0 0 0 27 35 0 0 0 0 0 0 27 34 0 0 0 36 0 0 0 25 0 0 24 0 0 0 0 0 0 0 0 0 0 0 0 0 37 0 0 0 0 
		17 0 0 0 0 0 0 32 0 0 0 35 0 0 0 0 0 0 0 0 0 0 0 0 31 0 0 29 0 35 0 0 0 0 0 35 0 27 0 0 0 0 0 0 0 0 0 0 0 0 0 0 0 0 0 0 0 32 0 0 0 0 0 0 0 34 21 0 0 0 0 0 0 0 
		18 0 0 0 0 0 0 0 0 0 0 0 0 0 0 0 0 0 0 0 0 0 0 0 0 0 0 0 0 0 0 0 0 0 0 0 0 36 0 0 0 0 0 33 0 0 0 37 0 0 0 0 32 0 0 0 0 0 0 0 0 0 0 0 0 0 0 28 39 0 0 40 0 0 
		19 0 0 32 0 0 0 0 0 0 0 0 22 0 0 30 0 30 0 0 0 0 0 0 0 0 0 0 0 0 0 32 0 0 0 0 0 0 26 0 0 0 0 32 0 26 20 22 0 0 0 37 0 0 0 0 0 0 0 0 0 0 0 0 0 0 0 0 0 0 0 0 0 0 
		20 0 0 0 0 0 0 27 0 0 0 0 0 0 37 21 27 0 0 0 0 0 0 0 0 0 0 0 0 0 0 0 0 0 0 21 25 0 0 0 0 0 0 0 0 0 22 0 0 0 0 0 0 0 0 0 0 0 20 0 0 0 0 0 0 36 0 0 0 0 0 0 0 0 
		21 0 0 0 0 0 0 0 0 0 0 0 0 0 21 0 0 0 0 0 0 0 0 0 0 29 0 0 0 0 0 0 0 0 0 0 0 0 0 0 0 0 0 0 0 0 0 0 0 0 0 0 0 0 0 0 0 0 0 0 0 0 0 0 0 0 0 0 0 26 0 0 0 0 
		22 0 0 0 0 0 0 0 0 0 0 0 0 0 0 0 0 0 0 0 0 0 0 0 37 0 0 0 0 0 0 0 0 0 0 0 0 0 0 0 0 0 0 0 0 30 0 0 0 0 0 0 0 0 0 0 0 0 0 0 25 0 0 0 0 0 0 0 0 35 0 0 0 0 
		23 0 21 0 0 0 0 34 27 0 0 25 0 0 0 36 0 0 31 0 0 0 0 37 0 0 0 38 0 0 0 0 34 0 38 21 0 20 0 0 36 0 0 0 0 0 0 0 0 0 0 0 0 0 0 31 0 0 0 0 0 0 0 0 0 0 33 0 0 0 0 0 0 0 
		24 0 0 34 0 0 0 38 0 0 0 0 0 0 0 0 38 0 0 0 0 0 29 0 0 0 0 0 0 0 37 0 0 35 0 0 0 0 0 0 0 0 0 0 0 0 0 0 0 0 40 24 0 0 0 0 0 0 0 0 35 0 0 0 0 0 0 0 0 0 0 0 0 0 
		25 0 0 0 0 0 0 0 0 0 0 0 0 26 0 0 0 0 0 0 0 0 0 0 0 0 0 0 0 0 0 0 0 0 0 0 0 0 0 0 0 0 0 34 39 0 0 0 29 0 0 31 0 0 0 0 0 33 0 0 27 0 0 0 0 0 0 0 0 0 0 0 0 0 
		26 0 0 0 0 0 0 0 0 0 0 0 0 0 0 0 0 0 29 0 0 0 0 0 38 0 0 0 0 32 0 0 39 0 23 0 0 0 39 0 0 0 0 0 0 0 0 0 0 0 0 0 0 0 0 0 0 0 0 35 0 0 0 0 0 39 0 0 0 0 0 31 0 0 
		27 0 0 0 0 0 0 0 0 0 0 0 0 0 0 0 0 0 0 0 0 0 0 0 0 0 0 0 0 0 0 0 39 0 0 0 0 0 0 0 0 0 0 0 0 0 0 0 27 33 0 31 0 0 21 0 0 0 0 0 0 0 35 0 0 0 0 0 0 0 0 0 40 0 
		28 0 0 0 36 0 0 0 0 0 25 0 0 0 25 35 0 0 35 0 0 0 0 0 0 0 0 32 0 0 22 0 34 0 0 0 0 0 0 0 36 0 36 0 0 0 25 0 0 0 0 0 0 0 0 0 0 0 0 0 0 36 21 0 0 0 0 0 26 0 0 0 0 0 
		29 0 0 0 0 0 0 31 0 34 23 0 0 0 0 29 0 0 0 0 0 0 0 0 0 37 0 0 0 22 0 0 0 0 0 0 0 0 0 0 0 0 0 0 0 0 31 0 0 0 0 0 0 0 0 0 0 0 0 0 0 0 0 0 34 0 0 0 0 0 0 0 0 0 
		30 0 0 0 0 0 0 0 0 0 0 0 0 0 0 0 0 0 0 0 32 0 0 0 0 0 0 0 0 0 0 0 0 0 0 0 0 0 0 0 0 0 0 0 0 0 0 0 0 0 0 0 0 0 0 0 23 0 0 0 0 0 0 0 0 0 0 0 0 0 0 0 0 0 
		31 0 35 0 0 25 0 20 0 0 30 0 0 0 0 0 0 0 0 0 0 0 0 0 34 0 0 39 39 34 0 0 0 0 0 0 0 0 0 0 0 39 0 0 0 38 0 0 0 0 0 0 0 0 0 0 0 0 0 0 0 0 0 0 0 0 0 36 0 0 0 0 0 40 
		32 0 0 0 0 0 0 0 0 0 0 0 0 0 0 0 0 0 0 0 0 0 0 0 0 35 0 0 0 0 0 0 0 0 0 0 0 0 0 0 0 0 0 0 0 0 0 0 0 0 0 0 0 0 0 0 0 0 0 0 0 0 0 0 0 0 0 0 25 0 0 0 0 0 
		33 0 0 0 0 0 0 0 0 0 0 0 0 25 0 0 0 0 0 0 0 0 0 0 38 0 0 23 0 0 0 0 0 0 0 0 0 0 0 0 0 0 0 31 0 36 0 0 0 0 0 0 0 0 0 0 23 0 0 0 0 0 0 0 0 0 0 0 0 0 0 0 37 0 
		34 0 24 0 0 0 0 0 0 0 0 0 0 0 24 0 0 27 35 0 0 21 0 0 21 0 0 0 0 0 0 0 0 0 0 0 0 0 0 0 0 0 0 0 0 0 0 0 0 0 0 0 0 0 0 0 0 0 34 0 0 0 0 0 0 0 31 0 0 0 0 0 0 0 
		35 0 0 0 29 0 0 0 0 0 0 0 0 0 0 0 0 35 0 0 0 25 0 0 0 0 0 0 0 0 0 0 0 0 0 0 0 31 0 0 0 0 0 0 37 0 0 0 27 0 0 0 0 21 0 0 0 0 40 0 0 0 0 0 0 0 0 0 0 0 0 0 0 0 
		36 0 0 0 0 0 0 0 0 0 0 26 0 0 38 0 0 0 27 36 0 0 0 0 20 0 0 0 0 0 0 0 0 0 0 0 31 0 0 0 0 0 0 0 0 0 0 0 0 0 0 0 0 0 0 0 23 0 0 0 0 0 27 0 0 0 0 0 0 0 37 0 0 0 
		37 0 0 0 0 32 0 0 0 0 0 39 0 0 0 0 35 0 0 0 26 0 0 0 0 0 0 39 0 0 0 0 0 0 0 0 0 0 0 0 0 0 0 0 23 0 22 0 0 0 0 0 0 0 0 0 0 0 0 27 0 0 0 0 0 0 0 0 0 0 0 36 0 0 
		38 0 0 0 0 0 0 0 36 0 0 0 0 0 0 0 0 0 0 0 0 0 0 0 0 0 0 0 0 0 0 0 0 0 0 0 0 0 0 0 29 0 0 0 0 0 0 0 34 0 37 0 0 0 0 0 0 23 0 0 0 0 0 0 0 0 0 25 0 0 0 0 0 0 
		39 0 0 0 26 0 0 0 38 0 0 0 0 0 0 0 0 0 0 0 0 0 0 0 36 0 0 0 0 36 0 0 0 0 0 0 0 0 0 29 0 0 0 0 0 0 0 0 0 0 0 0 0 0 0 0 0 0 0 0 0 0 0 0 0 0 0 34 0 0 0 0 0 0 
		40 0 0 0 0 20 0 0 33 0 0 0 0 0 0 0 0 0 0 0 0 0 0 0 0 0 0 0 0 0 0 0 39 0 0 0 0 0 0 0 0 0 0 0 23 0 0 0 30 0 0 0 0 23 0 0 0 27 0 0 0 0 0 0 0 0 0 0 0 0 0 0 0 33 
		41 0 0 0 0 0 0 0 0 0 0 0 0 0 0 0 0 0 0 0 0 0 0 0 0 0 0 0 0 36 0 0 0 0 0 0 0 0 0 0 0 0 0 0 0 0 0 0 0 0 37 22 0 24 0 0 0 0 0 0 0 0 0 0 0 0 0 0 35 0 0 0 0 0 
		42 0 24 28 0 0 0 0 0 0 0 0 0 0 0 0 0 27 0 33 32 0 0 0 0 0 34 0 0 0 0 0 0 0 31 0 0 0 0 0 0 0 0 0 0 0 0 0 0 0 0 0 0 0 25 0 27 0 0 0 0 0 0 0 0 0 0 0 0 0 0 0 0 0 
		43 0 0 40 0 0 0 0 0 0 0 0 0 0 0 0 0 34 0 0 0 0 0 0 0 0 39 0 0 0 0 0 0 0 0 0 37 0 23 0 0 23 0 0 0 0 0 0 0 0 0 0 0 21 0 0 0 0 0 0 0 39 0 0 0 0 40 0 0 0 0 0 0 0 
		44 0 0 0 0 0 0 0 0 0 0 0 24 0 0 0 0 0 0 0 26 0 0 30 0 0 0 0 0 0 0 0 38 0 36 0 0 0 0 0 0 0 0 0 0 0 0 0 0 0 0 0 0 0 0 0 33 0 0 0 0 0 0 0 0 0 0 0 0 20 0 0 0 0 
		45 0 0 0 0 0 0 0 0 0 0 0 0 0 0 38 0 0 0 0 20 22 0 0 0 0 0 0 0 25 31 0 0 0 0 0 0 0 22 0 0 0 0 0 0 0 0 0 0 0 0 0 0 0 0 0 0 0 0 0 0 0 0 0 0 0 0 0 0 0 0 0 0 0 
		46 0 0 0 0 0 0 0 32 20 0 0 0 0 0 0 30 0 0 37 22 0 0 0 0 0 0 0 0 0 0 0 0 0 0 0 0 0 0 0 0 0 0 0 0 0 0 0 0 0 0 0 0 0 0 0 0 0 0 0 0 0 0 0 0 0 32 0 0 0 0 0 0 0 
		47 0 0 0 20 0 0 0 0 0 0 0 0 0 0 0 38 36 0 0 0 0 0 0 0 0 29 0 27 0 0 0 0 0 0 0 27 0 0 34 0 30 0 0 0 0 0 0 0 0 0 0 0 0 0 0 0 0 0 0 0 0 0 0 0 0 0 0 0 0 0 27 0 0 
		48 0 0 0 0 0 0 0 0 0 0 0 37 0 0 0 0 0 0 0 0 0 0 0 0 0 0 0 33 0 0 0 0 0 0 0 0 0 0 0 0 0 0 0 0 0 0 0 0 0 0 0 0 0 0 0 39 0 0 0 0 0 0 0 0 0 0 0 0 0 0 0 28 0 
		49 0 0 0 25 0 0 0 0 0 0 0 0 0 0 23 0 0 0 0 0 0 0 0 0 40 0 0 0 0 0 0 0 0 0 0 0 0 0 37 0 0 37 0 0 0 0 0 0 0 0 0 0 32 0 0 0 0 0 0 0 0 0 0 0 0 0 0 0 0 0 0 0 0 
		50 0 0 0 0 0 22 0 0 0 0 0 0 0 0 0 0 0 0 0 37 0 0 0 0 24 31 0 31 0 0 0 0 0 0 0 0 0 0 0 0 0 22 0 0 0 0 0 0 0 0 0 0 0 0 0 0 23 38 0 0 0 0 0 0 0 0 0 0 0 0 39 0 0 
		51 0 0 0 0 0 0 0 0 0 0 0 0 0 0 0 0 25 0 32 0 0 0 0 0 0 0 0 0 0 0 0 0 0 0 0 0 0 0 0 0 0 0 0 0 0 0 0 0 0 0 0 0 0 0 0 0 0 0 0 0 0 0 0 0 24 0 0 0 0 0 0 0 0 
		52 0 0 0 0 0 0 0 0 0 0 25 0 0 0 0 0 0 0 0 0 0 0 0 0 0 0 0 0 0 0 0 0 0 0 0 21 0 0 0 0 23 24 0 21 0 0 0 0 0 32 0 0 0 0 25 0 20 0 0 0 0 0 0 0 0 0 0 0 0 0 0 0 0 
		53 0 0 36 0 0 0 0 0 0 0 0 22 0 0 0 0 0 0 0 0 0 0 0 0 0 0 0 21 0 0 0 0 0 0 0 0 0 0 0 0 0 0 25 0 0 0 0 0 0 0 0 0 0 0 27 34 0 0 0 0 0 0 31 0 0 0 0 0 37 0 0 21 0 
		54 0 0 36 0 0 0 0 0 0 0 21 22 0 0 0 38 24 0 0 0 0 0 0 31 0 0 0 0 0 0 0 0 0 0 0 0 0 0 0 0 0 0 0 0 0 0 0 0 0 0 0 0 25 27 0 0 0 0 0 0 0 0 0 0 0 0 0 0 0 0 0 0 0 
		55 0 38 0 0 0 0 0 0 0 0 0 24 30 0 0 0 0 0 0 0 0 0 0 0 0 0 0 0 0 0 23 0 0 23 0 0 23 0 0 0 0 0 27 0 33 0 0 0 39 0 0 0 0 34 0 0 0 0 20 0 21 0 0 0 0 0 0 0 0 0 0 38 0 
		56 39 0 0 0 0 0 0 0 0 0 0 0 0 0 0 0 0 32 0 0 0 0 0 0 0 33 0 0 0 0 0 0 0 0 0 0 0 0 23 0 27 0 0 0 0 0 0 0 0 0 23 0 20 0 0 0 0 39 33 0 0 0 34 0 0 0 0 0 0 0 37 0 0 
		57 0 0 0 0 0 0 0 0 0 0 22 0 0 0 0 0 0 0 0 0 20 0 0 0 0 0 0 0 0 0 0 0 0 0 34 40 0 0 0 0 0 0 0 0 0 0 0 0 0 0 38 0 0 0 0 0 39 0 0 0 0 0 0 0 39 0 0 0 0 35 0 0 0 
		58 0 0 0 0 0 0 0 0 0 0 0 0 0 0 0 0 0 0 0 0 0 0 0 0 0 0 35 0 0 0 0 0 0 0 0 0 0 27 0 0 0 0 0 0 0 0 0 0 0 0 0 0 0 0 0 20 33 0 0 0 0 0 0 0 0 0 0 0 34 0 0 0 0 
		59 0 0 0 0 0 0 0 0 0 0 0 0 0 0 0 0 0 0 0 0 0 0 25 0 35 27 0 0 0 0 0 0 0 0 0 0 0 0 0 0 0 0 0 0 0 0 0 0 0 0 0 0 0 0 0 0 0 0 0 0 30 0 37 0 0 0 0 0 0 0 0 25 0 
		60 0 28 0 0 0 0 0 0 0 0 0 24 0 0 0 0 0 0 0 0 0 0 0 0 0 0 0 0 36 0 0 0 0 0 0 0 0 0 0 0 0 0 0 39 0 0 0 0 0 0 0 0 0 0 0 21 0 0 0 30 0 0 39 31 0 0 0 0 0 30 0 0 0 
		61 0 0 0 0 0 0 0 0 0 39 0 0 0 0 0 0 0 0 0 0 0 0 0 0 0 0 0 35 21 0 0 0 0 0 0 0 27 0 0 0 0 0 0 0 0 0 0 0 0 0 0 0 0 0 0 0 0 0 0 0 0 0 0 0 0 0 0 0 0 0 0 0 0 
		62 0 0 20 0 0 0 0 0 0 0 0 0 0 0 36 0 0 0 0 0 0 0 0 0 0 0 0 0 0 0 0 0 0 0 0 0 0 0 0 0 0 0 0 0 0 0 0 0 0 0 0 0 0 31 0 0 34 0 0 37 39 0 0 0 0 35 0 0 0 0 0 0 0 
		63 0 0 27 0 0 0 0 0 0 0 0 0 0 0 0 0 0 0 0 0 0 0 0 0 0 0 0 0 0 34 0 0 0 0 0 0 0 0 0 0 0 0 0 0 0 0 0 0 0 0 0 0 0 0 0 0 0 0 0 0 31 0 0 0 0 0 0 0 0 0 0 0 0 
		64 0 0 0 0 0 0 0 0 0 0 0 0 0 0 0 0 0 34 0 0 36 0 0 0 0 0 39 0 0 0 0 0 0 0 0 0 0 0 0 0 0 0 0 0 0 0 0 0 0 0 0 24 0 0 0 0 0 39 0 0 0 0 0 0 0 0 0 0 21 25 0 0 0 
		65 0 0 0 0 0 0 28 0 0 0 0 0 0 0 0 0 0 21 0 0 0 0 0 33 0 0 0 0 0 0 0 0 0 0 31 0 0 0 0 0 0 0 0 40 0 0 32 0 0 0 0 0 0 0 0 0 0 0 0 0 0 0 35 0 0 0 0 0 0 0 0 0 0 
		66 0 0 0 0 31 0 0 0 0 0 0 0 0 37 0 0 0 0 28 0 0 0 0 0 0 0 0 0 0 0 0 36 0 0 0 0 0 0 25 34 0 0 0 0 0 0 0 0 0 0 0 0 0 0 0 0 0 0 0 0 0 0 0 0 0 0 0 32 0 0 0 0 28 
		67 0 34 0 0 0 0 0 0 0 0 0 0 0 0 0 26 0 0 39 0 0 0 0 0 0 0 0 0 26 0 0 0 25 0 0 0 0 0 0 0 0 35 0 0 0 0 0 0 0 0 0 0 0 0 0 0 0 0 0 0 0 0 0 0 0 0 32 0 0 0 0 0 0 
		68 0 0 0 0 0 0 0 0 0 0 37 0 0 0 0 0 37 0 0 0 0 26 35 0 0 0 0 0 0 0 0 0 0 0 0 0 0 0 0 0 0 0 0 0 20 0 0 0 0 0 0 0 0 37 0 0 0 0 34 0 0 0 0 0 21 0 0 0 0 0 0 0 0 
		69 0 0 20 0 0 0 29 0 0 0 0 0 0 0 0 0 0 0 0 0 0 0 0 0 0 0 0 0 0 0 0 0 0 0 0 0 37 0 0 0 0 0 0 0 0 0 0 0 0 0 0 0 0 0 0 0 0 35 0 0 30 0 0 0 25 0 0 0 0 0 0 0 0 
		70 0 0 0 0 0 0 0 0 0 0 0 0 0 0 0 0 0 0 40 0 0 0 0 0 0 0 31 0 0 0 0 0 0 0 0 0 0 36 0 0 0 0 0 0 0 0 0 27 0 0 39 0 0 0 0 0 37 0 0 0 0 0 0 0 0 0 0 0 0 0 0 0 0 
		71 0 0 0 0 0 0 0 0 0 0 0 0 0 0 0 0 0 0 0 0 0 0 0 0 0 0 0 40 0 0 0 0 0 37 0 0 0 0 0 0 0 0 0 0 0 0 0 0 28 0 0 0 0 21 0 38 0 0 0 25 0 0 0 0 0 0 0 0 0 0 0 0 0 
		72 0 0 0 0 0 0 0 0 0 0 0 0 0 0 0 0 0 0 0 0 0 0 0 0 0 0 0 0 0 0 0 40 0 0 0 0 0 0 0 0 33 0 0 0 0 0 0 0 0 0 0 0 0 0 0 0 0 0 0 0 0 0 0 0 0 0 28 0 0 0 0 0 0 
;
